(set-logic ALL)
(declare-fun var0 () String)
(assert (str.in_re var0 (re.++ (re.* (re.* (str.to_re "00"))) (re.++ (re.union (re.union (str.to_re "111") (str.to_re "22")) (re.union (str.to_re "33") (str.to_re "4"))) (re.++ (re.+ (re.+ (str.to_re "5"))) (re.++ (re.union (re.union (str.to_re "666") (str.to_re "777")) (re.union (str.to_re "8") (str.to_re "99"))) (re.++ (re.* (re.* (str.to_re "a"))) (re.++ (re.union (re.+ (str.to_re "b")) (re.+ (str.to_re "c"))) (re.++ (re.union (re.union (str.to_re "dd") (str.to_re "e")) (re.union (str.to_re "fff") (str.to_re "g"))) (re.++ (re.union (re.+ (str.to_re "hhh")) (re.+ (str.to_re "iii"))) (re.++ (re.union (re.+ (str.to_re "jj")) (re.+ (str.to_re "kkk"))) (re.union (re.+ (str.to_re "ll")) (re.+ (str.to_re "m"))))))))))))))
(assert (<= 126 (str.len var0)))
(check-sat)